Maximize

5 y_0 + 5 y_1 + 5 y_2 + 5 y_3 + 5 y_4 + 2 y_5 + 1 y_6 + 1 y_7 + 1 y_8 + 1 y_9


Subject To

a0: 1234.5 y_0 + 1098.7 y_1 + 1654.3 y_2 + 1210.9 y_3 + 1876.5 y_4 + 1432.1 y_5 + 1234.5 y_6 + 1099.9 y_7 + 1199.9 y_8 + 1000.0 y_9 <= 5000.0
b0: y_0 + y_2 + y_5 + y_6 >= 1
b1: y_0 + y_3 + y_7 + y_8 >= 1
b2: y_1 + y_3 + y_6 + y_9 >= 1
b3: y_1 + y_4 + y_5 + y_7 >= 1
b4: y_2 + y_4 + y_8 + y_9 >= 1
c0: y_0 + y_8 <= 1
c1: y_0 + y_9 <= 1
c2: y_1 + y_7 <= 1
c3: y_1 + y_8 <= 1
c4: y_2 + y_6 <= 1
c5: y_2 + y_7 <= 1
c6: y_3 + y_5 <= 1
c7: y_3 + y_6 <= 1
c8: y_4 + y_9 <= 1
c9: y_5 + y_3 <= 1
c10: y_6 + y_2 <= 1
c11: y_6 + y_3 <= 1
c12: y_7 + y_1 <= 1
c13: y_7 + y_2 <= 1
c14: y_8 + y_0 <= 1
c15: y_8 + y_1 <= 1
c16: y_9 + y_0 <= 1
c17: y_9 + y_4 <= 1




Binary

y_0 y_1 y_2 y_3 y_4 y_5 y_6 y_7 y_8 y_9

 


End
